************************************************************************
file with basedata            : EXPL4.BAS
initial value random generator: 1840679129
************************************************************************
projects                      :  1
jobs (incl. supersource/sink ):  16
horizon                       :  86
RESOURCES
  - renewable                 :  2   R
  - nonrenewable              :  2   N
  - doubly constrained        :  0   D
************************************************************************
PROJECT INFORMATION:
pronr.  #jobs rel.date duedate tardcost  MPM-Time
    1     14      0       57        4       57
************************************************************************
PRECEDENCE RELATIONS:
jobnr.    #modes  #successors   successors
   1        1          1           2
   2        1          3           3   4   6
   3        1          3           5   8   9
   4        1          1          10
   5        1          1          15
   6        1          3           7   9  10
   7        1          2           8  13
   8        1          1          11
   9        1          2          12  13
  10        1          2          12  13
  11        1          1          12
  12        1          1          14
  13        1          1          14
  14        1          1          15
  15        1          1          16
  16        1          0        
************************************************************************
REQUESTS/DURATIONS:
jobnr. mode duration  R 1  R 2  N 1  N 2
------------------------------------------------------------------------
  1      1     0       0    0    0    0
  2      1     8       3    0    7    3
  3      1     6       0    4    8    5
  4      1     4       1    0   10    7
  5      1     3       2    0    5    9
  6      1     5       0    5    4    3
  7      1     7       4    0    7    2
  8      1     6       5    0    3    3
  9      1     1       0    8    7    3
 10      1     8       0    6    9    5
 11      1     4       0    5    3    6
 12      1    10       0    8    4    5
 13      1     7       1    0    2    9
 14      1     9       3    0    7    8
 15      1     8       4    0    7    1
 16      1     0       0    0    0    0
************************************************************************
RESOURCEAVAILABILITIES:
  R 1  R 2  N 1  N 2
    5    9   83   69
************************************************************************
OVERCAPACITY COSTS:
1->0.5
2->0.5
MAX OVERCAPACITY:
1->2
2->4
